100 1217
300 6194
500 12737
700 20781
900 31826
1100 40266
1300 52908
1500 67205
1700 79470
1900 93964
2100 109549
2300 125116
2500 140087
2700 160103
2900 177518
3100 195618
3300 214610
3500 234569
3700 257110
3900 270803
